n = 100;
t = 10;
m = 2;
p_j = [79 97 178 96 178 107 126 123 157 98 187 151 61 53 118 196 172 240 57 153 66 116 164 64 238 195 195 237 133 217 180 66 94 215 84 99 76 194 124 80 228 240 98 119 99 150 70 160 71 104 153 174 177 82 51 153 56 183 126 122 183 144 85 167 155 219 116 84 83 218 90 120 218 150 135 208 99 129 76 90 186 68 59 177 143 131 203 179 69 92 81 107 239 123 151 108 50 176 214 161];
v_j = [680 1140 2660 970 2760 1190 1570 1510 2240 960 2790 2020 320 110 1410 2970 2490 3850 190 2060 320 1520 2480 380 3810 3100 2950 3740 1710 3440 2700 420 880 3500 880 1030 720 2930 1480 800 3610 3900 1160 1580 1030 2000 400 2400 520 1180 2110 2480 2740 690 20 2110 170 2660 1720 1440 2760 1880 700 2440 2100 3380 1370 680 760 3360 850 1450 3560 2200 1700 3260 1180 1780 720 800 2770 360 380 2540 2060 1720 3060 2630 580 1040 670 1190 3780 1560 2220 1210 0 2570 3330 2320];
r_j = [8 5 2 1 4 3 7 6 8 1 8 7 4 7 5 4 8 6 8 8 8 8 1 3 2 6 2 5 8 8 4 1 4 7 8 6 6 5 6 7 7 2 1 3 8 8 7 4 3 7 4 4 7 1 7 2 7 6 2 8 3 8 5 7 5 7 3 8 4 4 3 4 3 1 6 5 2 6 7 1 2 5 5 4 4 6 2 6 2 3 6 8 4 4 3 3 3 3 2 8];
d_j = [10 7 9 1 9 3 7 8 8 8 9 8 6 8 7 7 8 6 8 9 8 9 6 5 9 6 3 10 8 10 9 7 8 8 9 7 6 9 8 10 8 4 2 9 9 10 10 5 6 9 10 6 8 10 7 6 8 7 2 9 4 9 10 9 6 8 5 8 5 7 5 4 6 1 7 10 10 10 9 2 8 7 5 6 7 9 9 7 2 3 10 9 10 6 5 8 9 4 4 9];
D_t = [240 240 240 240 240 240 240 240 240 240];
delta_t = [60 60 60 60 60 60 60 60 60 60];
M_t = [{1 2} {1 2} {1 2} {1 2} {1 2} {1 2} {1 2} {1 2} {1 2} {1 2}];
M_j = [{1 2} {2 1} {2 1} {2 1} {1 2} {2 1} {1 2} {2 1} {2 1} {1 2} {1 2} {1 2} {2 1} {1 2} {2 1} {1 2} {2 1} {2 1} {2 1} {1 2} {1 2} {2 1} {2 1} {2 1} {1 2} {1 2} {1 2} {1 2} {2 1} {1 2} {1 2} {1 2} {1 2} {2 1} {1 2} {2 1} {2 1} {2 1} {2 1} {1 2} {2 1} {1 2} {1 2} {2 1} {2 1} {1 2} {1 2} {2 1} {2 1} {2 1} {1 2} {2 1} {2 1} {2 1} {1 2} {1 2} {2 1} {2 1} {2 1} {2 1} {1 2} {1 2} {2 1} {2 1} {2 1} {1 2} {2 1} {2 1} {1 2} {1 2} {1 2} {1 2} {2 1} {2 1} {1 2} {1 2} {2 1} {2 1} {2 1} {1 2} {2 1} {2 1} {1 2} {1 2} {2 1} {2 1} {1 2} {2 1} {2 1} {1 2} {2 1} {1 2} {1 2} {1 2} {2 1} {1 2} {2 1} {1 2} {2 1} {1 2}];
M_jt = [[{1 2} {1 2} {1 2} {1 2} {1 2} {1 2} {1 2} {1 2} {1 2} {1 2}]
[{1 2} {1 2} {1 2} {1 2} {1 2} {1 2} {1 2} {1 2} {1 2} {1 2}]
[{1 2} {1 2} {1 2} {1 2} {1 2} {1 2} {1 2} {1 2} {1 2} {1 2}]
[{1 2} {1 2} {1 2} {1 2} {1 2} {1 2} {1 2} {1 2} {1 2} {1 2}]
[{1 2} {1 2} {1 2} {1 2} {1 2} {1 2} {1 2} {1 2} {1 2} {1 2}]
[{1 2} {1 2} {1 2} {1 2} {1 2} {1 2} {1 2} {1 2} {1 2} {1 2}]
[{1 2} {1 2} {1 2} {1 2} {1 2} {1 2} {1 2} {1 2} {1 2} {1 2}]
[{1 2} {1 2} {1 2} {1 2} {1 2} {1 2} {1 2} {1 2} {1 2} {1 2}]
[{1 2} {1 2} {1 2} {1 2} {1 2} {1 2} {1 2} {1 2} {1 2} {1 2}]
[{1 2} {1 2} {1 2} {1 2} {1 2} {1 2} {1 2} {1 2} {1 2} {1 2}]
[{1 2} {1 2} {1 2} {1 2} {1 2} {1 2} {1 2} {1 2} {1 2} {1 2}]
[{1 2} {1 2} {1 2} {1 2} {1 2} {1 2} {1 2} {1 2} {1 2} {1 2}]
[{1 2} {1 2} {1 2} {1 2} {1 2} {1 2} {1 2} {1 2} {1 2} {1 2}]
[{1 2} {1 2} {1 2} {1 2} {1 2} {1 2} {1 2} {1 2} {1 2} {1 2}]
[{1 2} {1 2} {1 2} {1 2} {1 2} {1 2} {1 2} {1 2} {1 2} {1 2}]
[{1 2} {1 2} {1 2} {1 2} {1 2} {1 2} {1 2} {1 2} {1 2} {1 2}]
[{1 2} {1 2} {1 2} {1 2} {1 2} {1 2} {1 2} {1 2} {1 2} {1 2}]
[{1 2} {1 2} {1 2} {1 2} {1 2} {1 2} {1 2} {1 2} {1 2} {1 2}]
[{1 2} {1 2} {1 2} {1 2} {1 2} {1 2} {1 2} {1 2} {1 2} {1 2}]
[{1 2} {1 2} {1 2} {1 2} {1 2} {1 2} {1 2} {1 2} {1 2} {1 2}]
[{1 2} {1 2} {1 2} {1 2} {1 2} {1 2} {1 2} {1 2} {1 2} {1 2}]
[{1 2} {1 2} {1 2} {1 2} {1 2} {1 2} {1 2} {1 2} {1 2} {1 2}]
[{1 2} {1 2} {1 2} {1 2} {1 2} {1 2} {1 2} {1 2} {1 2} {1 2}]
[{1 2} {1 2} {1 2} {1 2} {1 2} {1 2} {1 2} {1 2} {1 2} {1 2}]
[{1 2} {1 2} {1 2} {1 2} {1 2} {1 2} {1 2} {1 2} {1 2} {1 2}]
[{1 2} {1 2} {1 2} {1 2} {1 2} {1 2} {1 2} {1 2} {1 2} {1 2}]
[{1 2} {1 2} {1 2} {1 2} {1 2} {1 2} {1 2} {1 2} {1 2} {1 2}]
[{1 2} {1 2} {1 2} {1 2} {1 2} {1 2} {1 2} {1 2} {1 2} {1 2}]
[{1 2} {1 2} {1 2} {1 2} {1 2} {1 2} {1 2} {1 2} {1 2} {1 2}]
[{1 2} {1 2} {1 2} {1 2} {1 2} {1 2} {1 2} {1 2} {1 2} {1 2}]
[{1 2} {1 2} {1 2} {1 2} {1 2} {1 2} {1 2} {1 2} {1 2} {1 2}]
[{1 2} {1 2} {1 2} {1 2} {1 2} {1 2} {1 2} {1 2} {1 2} {1 2}]
[{1 2} {1 2} {1 2} {1 2} {1 2} {1 2} {1 2} {1 2} {1 2} {1 2}]
[{1 2} {1 2} {1 2} {1 2} {1 2} {1 2} {1 2} {1 2} {1 2} {1 2}]
[{1 2} {1 2} {1 2} {1 2} {1 2} {1 2} {1 2} {1 2} {1 2} {1 2}]
[{1 2} {1 2} {1 2} {1 2} {1 2} {1 2} {1 2} {1 2} {1 2} {1 2}]
[{1 2} {1 2} {1 2} {1 2} {1 2} {1 2} {1 2} {1 2} {1 2} {1 2}]
[{1 2} {1 2} {1 2} {1 2} {1 2} {1 2} {1 2} {1 2} {1 2} {1 2}]
[{1 2} {1 2} {1 2} {1 2} {1 2} {1 2} {1 2} {1 2} {1 2} {1 2}]
[{1 2} {1 2} {1 2} {1 2} {1 2} {1 2} {1 2} {1 2} {1 2} {1 2}]
[{1 2} {1 2} {1 2} {1 2} {1 2} {1 2} {1 2} {1 2} {1 2} {1 2}]
[{1 2} {1 2} {1 2} {1 2} {1 2} {1 2} {1 2} {1 2} {1 2} {1 2}]
[{1 2} {1 2} {1 2} {1 2} {1 2} {1 2} {1 2} {1 2} {1 2} {1 2}]
[{1 2} {1 2} {1 2} {1 2} {1 2} {1 2} {1 2} {1 2} {1 2} {1 2}]
[{1 2} {1 2} {1 2} {1 2} {1 2} {1 2} {1 2} {1 2} {1 2} {1 2}]
[{1 2} {1 2} {1 2} {1 2} {1 2} {1 2} {1 2} {1 2} {1 2} {1 2}]
[{1 2} {1 2} {1 2} {1 2} {1 2} {1 2} {1 2} {1 2} {1 2} {1 2}]
[{1 2} {1 2} {1 2} {1 2} {1 2} {1 2} {1 2} {1 2} {1 2} {1 2}]
[{1 2} {1 2} {1 2} {1 2} {1 2} {1 2} {1 2} {1 2} {1 2} {1 2}]
[{1 2} {1 2} {1 2} {1 2} {1 2} {1 2} {1 2} {1 2} {1 2} {1 2}]
[{1 2} {1 2} {1 2} {1 2} {1 2} {1 2} {1 2} {1 2} {1 2} {1 2}]
[{1 2} {1 2} {1 2} {1 2} {1 2} {1 2} {1 2} {1 2} {1 2} {1 2}]
[{1 2} {1 2} {1 2} {1 2} {1 2} {1 2} {1 2} {1 2} {1 2} {1 2}]
[{1 2} {1 2} {1 2} {1 2} {1 2} {1 2} {1 2} {1 2} {1 2} {1 2}]
[{1 2} {1 2} {1 2} {1 2} {1 2} {1 2} {1 2} {1 2} {1 2} {1 2}]
[{1 2} {1 2} {1 2} {1 2} {1 2} {1 2} {1 2} {1 2} {1 2} {1 2}]
[{1 2} {1 2} {1 2} {1 2} {1 2} {1 2} {1 2} {1 2} {1 2} {1 2}]
[{1 2} {1 2} {1 2} {1 2} {1 2} {1 2} {1 2} {1 2} {1 2} {1 2}]
[{1 2} {1 2} {1 2} {1 2} {1 2} {1 2} {1 2} {1 2} {1 2} {1 2}]
[{1 2} {1 2} {1 2} {1 2} {1 2} {1 2} {1 2} {1 2} {1 2} {1 2}]
[{1 2} {1 2} {1 2} {1 2} {1 2} {1 2} {1 2} {1 2} {1 2} {1 2}]
[{1 2} {1 2} {1 2} {1 2} {1 2} {1 2} {1 2} {1 2} {1 2} {1 2}]
[{1 2} {1 2} {1 2} {1 2} {1 2} {1 2} {1 2} {1 2} {1 2} {1 2}]
[{1 2} {1 2} {1 2} {1 2} {1 2} {1 2} {1 2} {1 2} {1 2} {1 2}]
[{1 2} {1 2} {1 2} {1 2} {1 2} {1 2} {1 2} {1 2} {1 2} {1 2}]
[{1 2} {1 2} {1 2} {1 2} {1 2} {1 2} {1 2} {1 2} {1 2} {1 2}]
[{1 2} {1 2} {1 2} {1 2} {1 2} {1 2} {1 2} {1 2} {1 2} {1 2}]
[{1 2} {1 2} {1 2} {1 2} {1 2} {1 2} {1 2} {1 2} {1 2} {1 2}]
[{1 2} {1 2} {1 2} {1 2} {1 2} {1 2} {1 2} {1 2} {1 2} {1 2}]
[{1 2} {1 2} {1 2} {1 2} {1 2} {1 2} {1 2} {1 2} {1 2} {1 2}]
[{1 2} {1 2} {1 2} {1 2} {1 2} {1 2} {1 2} {1 2} {1 2} {1 2}]
[{1 2} {1 2} {1 2} {1 2} {1 2} {1 2} {1 2} {1 2} {1 2} {1 2}]
[{1 2} {1 2} {1 2} {1 2} {1 2} {1 2} {1 2} {1 2} {1 2} {1 2}]
[{1 2} {1 2} {1 2} {1 2} {1 2} {1 2} {1 2} {1 2} {1 2} {1 2}]
[{1 2} {1 2} {1 2} {1 2} {1 2} {1 2} {1 2} {1 2} {1 2} {1 2}]
[{1 2} {1 2} {1 2} {1 2} {1 2} {1 2} {1 2} {1 2} {1 2} {1 2}]
[{1 2} {1 2} {1 2} {1 2} {1 2} {1 2} {1 2} {1 2} {1 2} {1 2}]
[{1 2} {1 2} {1 2} {1 2} {1 2} {1 2} {1 2} {1 2} {1 2} {1 2}]
[{1 2} {1 2} {1 2} {1 2} {1 2} {1 2} {1 2} {1 2} {1 2} {1 2}]
[{1 2} {1 2} {1 2} {1 2} {1 2} {1 2} {1 2} {1 2} {1 2} {1 2}]
[{1 2} {1 2} {1 2} {1 2} {1 2} {1 2} {1 2} {1 2} {1 2} {1 2}]
[{1 2} {1 2} {1 2} {1 2} {1 2} {1 2} {1 2} {1 2} {1 2} {1 2}]
[{1 2} {1 2} {1 2} {1 2} {1 2} {1 2} {1 2} {1 2} {1 2} {1 2}]
[{1 2} {1 2} {1 2} {1 2} {1 2} {1 2} {1 2} {1 2} {1 2} {1 2}]
[{1 2} {1 2} {1 2} {1 2} {1 2} {1 2} {1 2} {1 2} {1 2} {1 2}]
[{1 2} {1 2} {1 2} {1 2} {1 2} {1 2} {1 2} {1 2} {1 2} {1 2}]
[{1 2} {1 2} {1 2} {1 2} {1 2} {1 2} {1 2} {1 2} {1 2} {1 2}]
[{1 2} {1 2} {1 2} {1 2} {1 2} {1 2} {1 2} {1 2} {1 2} {1 2}]
[{1 2} {1 2} {1 2} {1 2} {1 2} {1 2} {1 2} {1 2} {1 2} {1 2}]
[{1 2} {1 2} {1 2} {1 2} {1 2} {1 2} {1 2} {1 2} {1 2} {1 2}]
[{1 2} {1 2} {1 2} {1 2} {1 2} {1 2} {1 2} {1 2} {1 2} {1 2}]
[{1 2} {1 2} {1 2} {1 2} {1 2} {1 2} {1 2} {1 2} {1 2} {1 2}]
[{1 2} {1 2} {1 2} {1 2} {1 2} {1 2} {1 2} {1 2} {1 2} {1 2}]
[{1 2} {1 2} {1 2} {1 2} {1 2} {1 2} {1 2} {1 2} {1 2} {1 2}]
[{1 2} {1 2} {1 2} {1 2} {1 2} {1 2} {1 2} {1 2} {1 2} {1 2}]
[{1 2} {1 2} {1 2} {1 2} {1 2} {1 2} {1 2} {1 2} {1 2} {1 2}]
[{1 2} {1 2} {1 2} {1 2} {1 2} {1 2} {1 2} {1 2} {1 2} {1 2}]
[{1 2} {1 2} {1 2} {1 2} {1 2} {1 2} {1 2} {1 2} {1 2} {1 2}]
[{1 2} {1 2} {1 2} {1 2} {1 2} {1 2} {1 2} {1 2} {1 2} {1 2}]
[{1 2} {1 2} {1 2} {1 2} {1 2} {1 2} {1 2} {1 2} {1 2} {1 2}]];
N_i = [{1 2 3 4 5 6 7 8 9 10 11 12 13 14 15 16 17 18 19 20 21 22 23 24 25 26 27 28 29 30 31 32 33 34 35 36 37 38 39 40 41 42 43 44 45 46 47 48 49 50 51 52 53 54 55 56 57 58 59 60 61 62 63 64 65 66 67 68 69 70 71 72 73 74 75 76 77 78 79 80 81 82 83 84 85 86 87 88 89 90 91 92 93 94 95 96 97 98 99 100} {1 2 3 4 5 6 7 8 9 10 11 12 13 14 15 16 17 18 19 20 21 22 23 24 25 26 27 28 29 30 31 32 33 34 35 36 37 38 39 40 41 42 43 44 45 46 47 48 49 50 51 52 53 54 55 56 57 58 59 60 61 62 63 64 65 66 67 68 69 70 71 72 73 74 75 76 77 78 79 80 81 82 83 84 85 86 87 88 89 90 91 92 93 94 95 96 97 98 99 100}];
N_t = [{4 10 23 32 43 54 74 80} {3 10 23 25 27 32 42 43 54 56 59 77 80 81 87 89 99} {3 6 10 23 24 25 27 32 42 44 49 54 56 61 67 71 73 77 81 87 90 95 96 97 98 99} {3 5 10 13 16 23 24 25 31 32 33 42 44 48 49 51 52 54 56 61 67 69 70 71 72 73 77 81 84 85 87 93 94 95 96 97 98 99} {2 3 5 10 13 15 16 23 24 25 28 31 32 33 38 44 48 49 51 52 54 56 63 65 67 69 70 71 73 76 77 81 82 83 84 85 87 93 94 95 96 97} {2 3 5 8 10 13 15 16 18 23 25 26 28 31 32 33 36 37 38 39 44 49 51 52 54 56 58 63 65 70 73 75 76 77 78 81 82 84 85 86 87 88 91 93 94 96 97} {2 3 5 7 8 10 12 14 15 16 25 28 31 32 33 34 36 38 39 40 41 44 47 50 51 53 54 55 57 58 63 64 66 70 75 76 77 78 79 81 82 85 86 87 88 91 93 96 97} {1 3 5 8 9 10 11 12 14 17 19 20 21 22 25 28 29 30 31 33 34 35 38 39 40 41 44 45 46 47 50 51 53 54 57 60 62 63 64 66 68 76 77 78 79 81 86 87 91 92 93 96 97 100} {1 3 5 11 20 22 25 28 30 31 35 38 40 44 45 46 47 50 51 54 60 62 63 64 76 77 78 79 86 87 91 92 93 97 100} {1 28 30 40 46 47 51 54 63 76 77 78 91 93}];
N_it = [[{4 10 23 32 43 54 74 80} {3 10 23 25 27 32 42 43 54 56 59 77 80 81 87 89 99} {3 6 10 23 24 25 27 32 42 44 49 54 56 61 67 71 73 77 81 87 90 95 96 97 98 99} {3 5 10 13 16 23 24 25 31 32 33 42 44 48 49 51 52 54 56 61 67 69 70 71 72 73 77 81 84 85 87 93 94 95 96 97 98 99} {2 3 5 10 13 15 16 23 24 25 28 31 32 33 38 44 48 49 51 52 54 56 63 65 67 69 70 71 73 76 77 81 82 83 84 85 87 93 94 95 96 97} {2 3 5 8 10 13 15 16 18 23 25 26 28 31 32 33 36 37 38 39 44 49 51 52 54 56 58 63 65 70 73 75 76 77 78 81 82 84 85 86 87 88 91 93 94 96 97} {2 3 5 7 8 10 12 14 15 16 25 28 31 32 33 34 36 38 39 40 41 44 47 50 51 53 54 55 57 58 63 64 66 70 75 76 77 78 79 81 82 85 86 87 88 91 93 96 97} {1 3 5 8 9 10 11 12 14 17 19 20 21 22 25 28 29 30 31 33 34 35 38 39 40 41 44 45 46 47 50 51 53 54 57 60 62 63 64 66 68 76 77 78 79 81 86 87 91 92 93 96 97 100} {1 3 5 11 20 22 25 28 30 31 35 38 40 44 45 46 47 50 51 54 60 62 63 64 76 77 78 79 86 87 91 92 93 97 100} {1 28 30 40 46 47 51 54 63 76 77 78 91 93}]
[{4 10 23 32 43 54 74 80} {3 10 23 25 27 32 42 43 54 56 59 77 80 81 87 89 99} {3 6 10 23 24 25 27 32 42 44 49 54 56 61 67 71 73 77 81 87 90 95 96 97 98 99} {3 5 10 13 16 23 24 25 31 32 33 42 44 48 49 51 52 54 56 61 67 69 70 71 72 73 77 81 84 85 87 93 94 95 96 97 98 99} {2 3 5 10 13 15 16 23 24 25 28 31 32 33 38 44 48 49 51 52 54 56 63 65 67 69 70 71 73 76 77 81 82 83 84 85 87 93 94 95 96 97} {2 3 5 8 10 13 15 16 18 23 25 26 28 31 32 33 36 37 38 39 44 49 51 52 54 56 58 63 65 70 73 75 76 77 78 81 82 84 85 86 87 88 91 93 94 96 97} {2 3 5 7 8 10 12 14 15 16 25 28 31 32 33 34 36 38 39 40 41 44 47 50 51 53 54 55 57 58 63 64 66 70 75 76 77 78 79 81 82 85 86 87 88 91 93 96 97} {1 3 5 8 9 10 11 12 14 17 19 20 21 22 25 28 29 30 31 33 34 35 38 39 40 41 44 45 46 47 50 51 53 54 57 60 62 63 64 66 68 76 77 78 79 81 86 87 91 92 93 96 97 100} {1 3 5 11 20 22 25 28 30 31 35 38 40 44 45 46 47 50 51 54 60 62 63 64 76 77 78 79 86 87 91 92 93 97 100} {1 28 30 40 46 47 51 54 63 76 77 78 91 93}]];
T_j = [{8 9 10} {5 6 7} {2 3 4 5 6 7 8 9} {1} {4 5 6 7 8 9} {3} {7} {6 7 8} {8} {1 2 3 4 5 6 7 8} {8 9} {7 8} {4 5 6} {7 8} {5 6 7} {4 5 6 7} {8} {6} {8} {8 9} {8} {8 9} {1 2 3 4 5 6} {3 4 5} {2 3 4 5 6 7 8 9} {6} {2 3} {5 6 7 8 9 10} {8} {8 9 10} {4 5 6 7 8 9} {1 2 3 4 5 6 7} {4 5 6 7 8} {7 8} {8 9} {6 7} {6} {5 6 7 8 9} {6 7 8} {7 8 9 10} {7 8} {2 3 4} {1 2} {3 4 5 6 7 8 9} {8 9} {8 9 10} {7 8 9 10} {4 5} {3 4 5 6} {7 8 9} {4 5 6 7 8 9 10} {4 5 6} {7 8} {1 2 3 4 5 6 7 8 9 10} {7} {2 3 4 5 6} {7 8} {6 7} {2} {8 9} {3 4} {8 9} {5 6 7 8 9 10} {7 8 9} {5 6} {7 8} {3 4 5} {8} {4 5} {4 5 6 7} {3 4 5} {4} {3 4 5 6} {1} {6 7} {5 6 7 8 9 10} {2 3 4 5 6 7 8 9 10} {6 7 8 9 10} {7 8 9} {1 2} {2 3 4 5 6 7 8} {5 6 7} {5} {4 5 6} {4 5 6 7} {6 7 8 9} {2 3 4 5 6 7 8 9} {6 7} {2} {3} {6 7 8 9 10} {8 9} {4 5 6 7 8 9 10} {4 5 6} {3 4 5} {3 4 5 6 7 8} {3 4 5 6 7 8 9} {3 4} {2 3 4} {8 9}];
T_i = [{1 2 3 4 5 6 7 8 9 10} {1 2 3 4 5 6 7 8 9 10}];
T_ji = [[{8 9 10} {8 9 10}]
[{5 6 7} {5 6 7}]
[{2 3 4 5 6 7 8 9} {2 3 4 5 6 7 8 9}]
[{1} {1}]
[{4 5 6 7 8 9} {4 5 6 7 8 9}]
[{3} {3}]
[{7} {7}]
[{6 7 8} {6 7 8}]
[{8} {8}]
[{1 2 3 4 5 6 7 8} {1 2 3 4 5 6 7 8}]
[{8 9} {8 9}]
[{7 8} {7 8}]
[{4 5 6} {4 5 6}]
[{7 8} {7 8}]
[{5 6 7} {5 6 7}]
[{4 5 6 7} {4 5 6 7}]
[{8} {8}]
[{6} {6}]
[{8} {8}]
[{8 9} {8 9}]
[{8} {8}]
[{8 9} {8 9}]
[{1 2 3 4 5 6} {1 2 3 4 5 6}]
[{3 4 5} {3 4 5}]
[{2 3 4 5 6 7 8 9} {2 3 4 5 6 7 8 9}]
[{6} {6}]
[{2 3} {2 3}]
[{5 6 7 8 9 10} {5 6 7 8 9 10}]
[{8} {8}]
[{8 9 10} {8 9 10}]
[{4 5 6 7 8 9} {4 5 6 7 8 9}]
[{1 2 3 4 5 6 7} {1 2 3 4 5 6 7}]
[{4 5 6 7 8} {4 5 6 7 8}]
[{7 8} {7 8}]
[{8 9} {8 9}]
[{6 7} {6 7}]
[{6} {6}]
[{5 6 7 8 9} {5 6 7 8 9}]
[{6 7 8} {6 7 8}]
[{7 8 9 10} {7 8 9 10}]
[{7 8} {7 8}]
[{2 3 4} {2 3 4}]
[{1 2} {1 2}]
[{3 4 5 6 7 8 9} {3 4 5 6 7 8 9}]
[{8 9} {8 9}]
[{8 9 10} {8 9 10}]
[{7 8 9 10} {7 8 9 10}]
[{4 5} {4 5}]
[{3 4 5 6} {3 4 5 6}]
[{7 8 9} {7 8 9}]
[{4 5 6 7 8 9 10} {4 5 6 7 8 9 10}]
[{4 5 6} {4 5 6}]
[{7 8} {7 8}]
[{1 2 3 4 5 6 7 8 9 10} {1 2 3 4 5 6 7 8 9 10}]
[{7} {7}]
[{2 3 4 5 6} {2 3 4 5 6}]
[{7 8} {7 8}]
[{6 7} {6 7}]
[{2} {2}]
[{8 9} {8 9}]
[{3 4} {3 4}]
[{8 9} {8 9}]
[{5 6 7 8 9 10} {5 6 7 8 9 10}]
[{7 8 9} {7 8 9}]
[{5 6} {5 6}]
[{7 8} {7 8}]
[{3 4 5} {3 4 5}]
[{8} {8}]
[{4 5} {4 5}]
[{4 5 6 7} {4 5 6 7}]
[{3 4 5} {3 4 5}]
[{4} {4}]
[{3 4 5 6} {3 4 5 6}]
[{1} {1}]
[{6 7} {6 7}]
[{5 6 7 8 9 10} {5 6 7 8 9 10}]
[{2 3 4 5 6 7 8 9 10} {2 3 4 5 6 7 8 9 10}]
[{6 7 8 9 10} {6 7 8 9 10}]
[{7 8 9} {7 8 9}]
[{1 2} {1 2}]
[{2 3 4 5 6 7 8} {2 3 4 5 6 7 8}]
[{5 6 7} {5 6 7}]
[{5} {5}]
[{4 5 6} {4 5 6}]
[{4 5 6 7} {4 5 6 7}]
[{6 7 8 9} {6 7 8 9}]
[{2 3 4 5 6 7 8 9} {2 3 4 5 6 7 8 9}]
[{6 7} {6 7}]
[{2} {2}]
[{3} {3}]
[{6 7 8 9 10} {6 7 8 9 10}]
[{8 9} {8 9}]
[{4 5 6 7 8 9 10} {4 5 6 7 8 9 10}]
[{4 5 6} {4 5 6}]
[{3 4 5} {3 4 5}]
[{3 4 5 6 7 8} {3 4 5 6 7 8}]
[{3 4 5 6 7 8 9} {3 4 5 6 7 8 9}]
[{3 4} {3 4}]
[{2 3 4} {2 3 4}]
[{8 9} {8 9}]];
c_jit = [[[590 490 590 590 490 590 490 490 590 490]
[440 340 440 440 340 440 340 340 440 340]]
[[820 720 820 820 720 820 720 720 820 720]
[670 570 670 670 570 670 570 570 670 570]]
[[1580 1480 1580 1580 1480 1580 1480 1480 1580 1480]
[1430 1330 1430 1430 1330 1430 1330 1330 1430 1330]]
[[735 635 735 735 635 735 635 635 735 635]
[585 485 585 585 485 585 485 485 585 485]]
[[1630 1530 1630 1630 1530 1630 1530 1530 1630 1530]
[1480 1380 1480 1480 1380 1480 1380 1380 1480 1380]]
[[845 745 845 845 745 845 745 745 845 745]
[695 595 695 695 595 695 595 595 695 595]]
[[1035 935 1035 1035 935 1035 935 935 1035 935]
[885 785 885 885 785 885 785 785 885 785]]
[[1005 905 1005 1005 905 1005 905 905 1005 905]
[855 755 855 855 755 855 755 755 855 755]]
[[1370 1270 1370 1370 1270 1370 1270 1270 1370 1270]
[1220 1120 1220 1220 1120 1220 1120 1120 1220 1120]]
[[730 630 730 730 630 730 630 630 730 630]
[580 480 580 580 480 580 480 480 580 480]]
[[1645 1545 1645 1645 1545 1645 1545 1545 1645 1545]
[1495 1395 1495 1495 1395 1495 1395 1395 1495 1395]]
[[1260 1160 1260 1260 1160 1260 1160 1160 1260 1160]
[1110 1010 1110 1110 1010 1110 1010 1010 1110 1010]]
[[410 310 410 410 310 410 310 310 410 310]
[260 160 260 260 160 260 160 160 260 160]]
[[305 205 305 305 205 305 205 205 305 205]
[155 55 155 155 55 155 55 55 155 55]]
[[955 855 955 955 855 955 855 855 955 855]
[805 705 805 805 705 805 705 705 805 705]]
[[1735 1635 1735 1735 1635 1735 1635 1635 1735 1635]
[1585 1485 1585 1585 1485 1585 1485 1485 1585 1485]]
[[1495 1395 1495 1495 1395 1495 1395 1395 1495 1395]
[1345 1245 1345 1345 1245 1345 1245 1245 1345 1245]]
[[2175 2075 2175 2175 2075 2175 2075 2075 2175 2075]
[2025 1925 2025 2025 1925 2025 1925 1925 2025 1925]]
[[345 245 345 345 245 345 245 245 345 245]
[195 95 195 195 95 195 95 95 195 95]]
[[1280 1180 1280 1280 1180 1280 1180 1180 1280 1180]
[1130 1030 1130 1130 1030 1130 1030 1030 1130 1030]]
[[410 310 410 410 310 410 310 310 410 310]
[260 160 260 260 160 260 160 160 260 160]]
[[1010 910 1010 1010 910 1010 910 910 1010 910]
[860 760 860 860 760 860 760 760 860 760]]
[[1490 1390 1490 1490 1390 1490 1390 1390 1490 1390]
[1340 1240 1340 1340 1240 1340 1240 1240 1340 1240]]
[[440 340 440 440 340 440 340 340 440 340]
[290 190 290 290 190 290 190 190 290 190]]
[[2155 2055 2155 2155 2055 2155 2055 2055 2155 2055]
[2005 1905 2005 2005 1905 2005 1905 1905 2005 1905]]
[[1800 1700 1800 1800 1700 1800 1700 1700 1800 1700]
[1650 1550 1650 1650 1550 1650 1550 1550 1650 1550]]
[[1725 1625 1725 1725 1625 1725 1625 1625 1725 1625]
[1575 1475 1575 1575 1475 1575 1475 1475 1575 1475]]
[[2120 2020 2120 2120 2020 2120 2020 2020 2120 2020]
[1970 1870 1970 1970 1870 1970 1870 1870 1970 1870]]
[[1105 1005 1105 1105 1005 1105 1005 1005 1105 1005]
[955 855 955 955 855 955 855 855 955 855]]
[[1970 1870 1970 1970 1870 1970 1870 1870 1970 1870]
[1820 1720 1820 1820 1720 1820 1720 1720 1820 1720]]
[[1600 1500 1600 1600 1500 1600 1500 1500 1600 1500]
[1450 1350 1450 1450 1350 1450 1350 1350 1450 1350]]
[[460 360 460 460 360 460 360 360 460 360]
[310 210 310 310 210 310 210 210 310 210]]
[[690 590 690 690 590 690 590 590 690 590]
[540 440 540 540 440 540 440 440 540 440]]
[[2000 1900 2000 2000 1900 2000 1900 1900 2000 1900]
[1850 1750 1850 1850 1750 1850 1750 1750 1850 1750]]
[[690 590 690 690 590 690 590 590 690 590]
[540 440 540 540 440 540 440 440 540 440]]
[[765 665 765 765 665 765 665 665 765 665]
[615 515 615 615 515 615 515 515 615 515]]
[[610 510 610 610 510 610 510 510 610 510]
[460 360 460 460 360 460 360 360 460 360]]
[[1715 1615 1715 1715 1615 1715 1615 1615 1715 1615]
[1565 1465 1565 1565 1465 1565 1465 1465 1565 1465]]
[[990 890 990 990 890 990 890 890 990 890]
[840 740 840 840 740 840 740 740 840 740]]
[[650 550 650 650 550 650 550 550 650 550]
[500 400 500 500 400 500 400 400 500 400]]
[[2055 1955 2055 2055 1955 2055 1955 1955 2055 1955]
[1905 1805 1905 1905 1805 1905 1805 1805 1905 1805]]
[[2200 2100 2200 2200 2100 2200 2100 2100 2200 2100]
[2050 1950 2050 2050 1950 2050 1950 1950 2050 1950]]
[[830 730 830 830 730 830 730 730 830 730]
[680 580 680 680 580 680 580 580 680 580]]
[[1040 940 1040 1040 940 1040 940 940 1040 940]
[890 790 890 890 790 890 790 790 890 790]]
[[765 665 765 765 665 765 665 665 765 665]
[615 515 615 615 515 615 515 515 615 515]]
[[1250 1150 1250 1250 1150 1250 1150 1150 1250 1150]
[1100 1000 1100 1100 1000 1100 1000 1000 1100 1000]]
[[450 350 450 450 350 450 350 350 450 350]
[300 200 300 300 200 300 200 200 300 200]]
[[1450 1350 1450 1450 1350 1450 1350 1350 1450 1350]
[1300 1200 1300 1300 1200 1300 1200 1200 1300 1200]]
[[510 410 510 510 410 510 410 410 510 410]
[360 260 360 360 260 360 260 260 360 260]]
[[840 740 840 840 740 840 740 740 840 740]
[690 590 690 690 590 690 590 590 690 590]]
[[1305 1205 1305 1305 1205 1305 1205 1205 1305 1205]
[1155 1055 1155 1155 1055 1155 1055 1055 1155 1055]]
[[1490 1390 1490 1490 1390 1490 1390 1390 1490 1390]
[1340 1240 1340 1340 1240 1340 1240 1240 1340 1240]]
[[1620 1520 1620 1620 1520 1620 1520 1520 1620 1520]
[1470 1370 1470 1470 1370 1470 1370 1370 1470 1370]]
[[595 495 595 595 495 595 495 495 595 495]
[445 345 445 445 345 445 345 345 445 345]]
[[260 160 260 260 160 260 160 160 260 160]
[110 10 110 110 10 110 10 10 110 10]]
[[1305 1205 1305 1305 1205 1305 1205 1205 1305 1205]
[1155 1055 1155 1155 1055 1155 1055 1055 1155 1055]]
[[335 235 335 335 235 335 235 235 335 235]
[185 85 185 185 85 185 85 85 185 85]]
[[1580 1480 1580 1580 1480 1580 1480 1480 1580 1480]
[1430 1330 1430 1430 1330 1430 1330 1330 1430 1330]]
[[1110 1010 1110 1110 1010 1110 1010 1010 1110 1010]
[960 860 960 960 860 960 860 860 960 860]]
[[970 870 970 970 870 970 870 870 970 870]
[820 720 820 820 720 820 720 720 820 720]]
[[1630 1530 1630 1630 1530 1630 1530 1530 1630 1530]
[1480 1380 1480 1480 1380 1480 1380 1380 1480 1380]]
[[1190 1090 1190 1190 1090 1190 1090 1090 1190 1090]
[1040 940 1040 1040 940 1040 940 940 1040 940]]
[[600 500 600 600 500 600 500 500 600 500]
[450 350 450 450 350 450 350 350 450 350]]
[[1470 1370 1470 1470 1370 1470 1370 1370 1470 1370]
[1320 1220 1320 1320 1220 1320 1220 1220 1320 1220]]
[[1300 1200 1300 1300 1200 1300 1200 1200 1300 1200]
[1150 1050 1150 1150 1050 1150 1050 1050 1150 1050]]
[[1940 1840 1940 1940 1840 1940 1840 1840 1940 1840]
[1790 1690 1790 1790 1690 1790 1690 1690 1790 1690]]
[[935 835 935 935 835 935 835 835 935 835]
[785 685 785 785 685 785 685 685 785 685]]
[[590 490 590 590 490 590 490 490 590 490]
[440 340 440 440 340 440 340 340 440 340]]
[[630 530 630 630 530 630 530 530 630 530]
[480 380 480 480 380 480 380 380 480 380]]
[[1930 1830 1930 1930 1830 1930 1830 1830 1930 1830]
[1780 1680 1780 1780 1680 1780 1680 1680 1780 1680]]
[[675 575 675 675 575 675 575 575 675 575]
[525 425 525 525 425 525 425 425 525 425]]
[[975 875 975 975 875 975 875 875 975 875]
[825 725 825 825 725 825 725 725 825 725]]
[[2030 1930 2030 2030 1930 2030 1930 1930 2030 1930]
[1880 1780 1880 1880 1780 1880 1780 1780 1880 1780]]
[[1350 1250 1350 1350 1250 1350 1250 1250 1350 1250]
[1200 1100 1200 1200 1100 1200 1100 1100 1200 1100]]
[[1100 1000 1100 1100 1000 1100 1000 1000 1100 1000]
[950 850 950 950 850 950 850 850 950 850]]
[[1880 1780 1880 1880 1780 1880 1780 1780 1880 1780]
[1730 1630 1730 1730 1630 1730 1630 1630 1730 1630]]
[[840 740 840 840 740 840 740 740 840 740]
[690 590 690 690 590 690 590 590 690 590]]
[[1140 1040 1140 1140 1040 1140 1040 1040 1140 1040]
[990 890 990 990 890 990 890 890 990 890]]
[[610 510 610 610 510 610 510 510 610 510]
[460 360 460 460 360 460 360 360 460 360]]
[[650 550 650 650 550 650 550 550 650 550]
[500 400 500 500 400 500 400 400 500 400]]
[[1635 1535 1635 1635 1535 1635 1535 1535 1635 1535]
[1485 1385 1485 1485 1385 1485 1385 1385 1485 1385]]
[[430 330 430 430 330 430 330 330 430 330]
[280 180 280 280 180 280 180 180 280 180]]
[[440 340 440 440 340 440 340 340 440 340]
[290 190 290 290 190 290 190 190 290 190]]
[[1520 1420 1520 1520 1420 1520 1420 1420 1520 1420]
[1370 1270 1370 1370 1270 1370 1270 1270 1370 1270]]
[[1280 1180 1280 1280 1180 1280 1180 1180 1280 1180]
[1130 1030 1130 1130 1030 1130 1030 1030 1130 1030]]
[[1110 1010 1110 1110 1010 1110 1010 1010 1110 1010]
[960 860 960 960 860 960 860 860 960 860]]
[[1780 1680 1780 1780 1680 1780 1680 1680 1780 1680]
[1630 1530 1630 1630 1530 1630 1530 1530 1630 1530]]
[[1565 1465 1565 1565 1465 1565 1465 1465 1565 1465]
[1415 1315 1415 1415 1315 1415 1315 1315 1415 1315]]
[[540 440 540 540 440 540 440 440 540 440]
[390 290 390 390 290 390 290 290 390 290]]
[[770 670 770 770 670 770 670 670 770 670]
[620 520 620 620 520 620 520 520 620 520]]
[[585 485 585 585 485 585 485 485 585 485]
[435 335 435 435 335 435 335 335 435 335]]
[[845 745 845 845 745 845 745 745 845 745]
[695 595 695 695 595 695 595 595 695 595]]
[[2140 2040 2140 2140 2040 2140 2040 2040 2140 2040]
[1990 1890 1990 1990 1890 1990 1890 1890 1990 1890]]
[[1030 930 1030 1030 930 1030 930 930 1030 930]
[880 780 880 880 780 880 780 780 880 780]]
[[1360 1260 1360 1360 1260 1360 1260 1260 1360 1260]
[1210 1110 1210 1210 1110 1210 1110 1110 1210 1110]]
[[855 755 855 855 755 855 755 755 855 755]
[705 605 705 705 605 705 605 605 705 605]]
[[250 150 250 250 150 250 150 150 250 150]
[100 0 100 100 0 100 0 0 100 0]]
[[1535 1435 1535 1535 1435 1535 1435 1435 1535 1435]
[1385 1285 1385 1385 1285 1385 1285 1285 1385 1285]]
[[1915 1815 1915 1915 1815 1915 1815 1815 1915 1815]
[1765 1665 1765 1765 1665 1765 1665 1665 1765 1665]]
[[1410 1310 1410 1410 1310 1410 1310 1310 1410 1310]
[1260 1160 1260 1260 1160 1260 1160 1160 1260 1160]]];
e_it = [[35 25 35 35 25 35 25 25 35 25]
[20 10 20 20 10 20 10 10 20 10]];
situation = 0;
instance = 0;
